language Essence 1.3

letting blksize_delta be function(1 --> 5, 2 --> 5, 3 --> 5, 4 --> 5, 5 --> 5, 6 --> 5, 7 --> 5, 8 --> 2, 9 --> 5)
letting maxcars be function(1 --> 10, 2 --> 10, 3 --> 10, 4 --> 10, 5 --> 10, 6 --> 10, 7 --> 10, 8 --> 10, 9 --> 10)
letting n_cars be 186
letting n_classes be 2
letting n_options be 9
letting quantity be function(1 --> 96, 2 --> 90)
letting usage be relation((1, 1), (1, 2), (1, 3), (1, 4), (1, 5), (1, 7), (1, 8), (2, 6), (2, 9))
$ Visualisation for usage
$ 1 1
$ 1 2
$ 1 3
$ 1 4
$ 1 5
$ 1 7
$ 1 8
$ 2 6
$ 2 9

